c strEdges: 189  randomEdges: 441 
c degrees:  2  3 
c girth: 10 max: 8.032766  
c Hgirth mixed MAXCUT instance
c generated from an undirected graph
c to solve unweighted MaxCut
p cnf 140 1260
73 30 0
-73 -30 0
73 106 0
-73 -106 0
73 86 0
-73 -86 0
112 23 0
-112 -23 0
112 132 0
-112 -132 0
112 93 0
-112 -93 0
58 18 0
-58 -18 0
58 99 0
-58 -99 0
104 93 0
-104 -93 0
104 130 0
-104 -130 0
101 11 0
-101 -11 0
101 105 0
-101 -105 0
101 46 0
-101 -46 0
16 99 0
-16 -99 0
16 65 0
-16 -65 0
8 114 0
-8 -114 0
8 126 0
-8 -126 0
8 123 0
-8 -123 0
66 117 0
-66 -117 0
66 114 0
-66 -114 0
66 91 0
-66 -91 0
9 91 0
-9 -91 0
9 17 0
-9 -17 0
9 4 0
-9 -4 0
107 36 0
-107 -36 0
107 14 0
-107 -14 0
107 102 0
-107 -102 0
79 118 0
-79 -118 0
79 14 0
-79 -14 0
29 33 0
-29 -33 0
29 49 0
-29 -49 0
29 67 0
-29 -67 0
100 105 0
-100 -105 0
100 20 0
-100 -20 0
100 102 0
-100 -102 0
63 98 0
-63 -98 0
63 54 0
-63 -54 0
63 43 0
-63 -43 0
72 67 0
-72 -67 0
72 93 0
-72 -93 0
72 11 0
-72 -11 0
120 102 0
-120 -102 0
120 23 0
-120 -23 0
35 96 0
-35 -96 0
35 94 0
-35 -94 0
35 76 0
-35 -76 0
56 106 0
-56 -106 0
56 51 0
-56 -51 0
10 40 0
-10 -40 0
10 91 0
-10 -91 0
10 121 0
-10 -121 0
34 12 0
-34 -12 0
34 39 0
-34 -39 0
34 47 0
-34 -47 0
78 86 0
-78 -86 0
78 42 0
-78 -42 0
32 3 0
-32 -3 0
32 36 0
-32 -36 0
32 99 0
-32 -99 0
133 7 0
-133 -7 0
133 130 0
-133 -130 0
133 6 0
-133 -6 0
116 43 0
-116 -43 0
116 44 0
-116 -44 0
116 42 0
-116 -42 0
28 20 0
-28 -20 0
28 65 0
-28 -65 0
28 43 0
-28 -43 0
80 65 0
-80 -65 0
80 40 0
-80 -40 0
22 51 0
-22 -51 0
22 97 0
-22 -97 0
22 124 0
-22 -124 0
95 110 0
-95 -110 0
95 85 0
-95 -85 0
95 7 0
-95 -7 0
140 137 0
-140 -137 0
140 20 0
-140 -20 0
140 97 0
-140 -97 0
111 130 0
-111 -130 0
111 81 0
-111 -81 0
111 3 0
-111 -3 0
115 54 0
-115 -54 0
115 33 0
-115 -33 0
115 92 0
-115 -92 0
129 85 0
-129 -85 0
129 122 0
-129 -122 0
129 71 0
-129 -71 0
113 92 0
-113 -92 0
113 15 0
-113 -15 0
113 106 0
-113 -106 0
74 1 0
-74 -1 0
74 27 0
-74 -27 0
77 122 0
-77 -122 0
77 27 0
-77 -27 0
77 138 0
-77 -138 0
109 123 0
-109 -123 0
109 3 0
-109 -3 0
109 52 0
-109 -52 0
108 132 0
-108 -132 0
108 117 0
-108 -117 0
139 13 0
-139 -13 0
139 60 0
-139 -60 0
139 53 0
-139 -53 0
69 76 0
-69 -76 0
69 138 0
-69 -138 0
69 137 0
-69 -137 0
41 39 0
-41 -39 0
41 53 0
-41 -53 0
41 18 0
-41 -18 0
19 64 0
-19 -64 0
19 105 0
-19 -105 0
19 39 0
-19 -39 0
131 71 0
-131 -71 0
131 17 0
-131 -17 0
131 11 0
-131 -11 0
24 6 0
-24 -6 0
24 60 0
-24 -60 0
128 17 0
-128 -17 0
128 135 0
-128 -135 0
25 103 0
-25 -103 0
25 98 0
-25 -98 0
25 1 0
-25 -1 0
21 94 0
-21 -94 0
21 30 0
-21 -30 0
21 88 0
-21 -88 0
83 47 0
-83 -47 0
83 110 0
-83 -110 0
83 76 0
-83 -76 0
5 27 0
-5 -27 0
5 64 0
-5 -64 0
5 114 0
-5 -114 0
125 49 0
-125 -49 0
125 82 0
-125 -82 0
125 121 0
-125 -121 0
59 134 0
-59 -134 0
59 1 0
-59 -1 0
59 124 0
-59 -124 0
70 88 0
-70 -88 0
70 118 0
-70 -118 0
70 117 0
-70 -117 0
55 15 0
-55 -15 0
55 64 0
-55 -64 0
26 124 0
-26 -124 0
26 52 0
-26 -52 0
119 4 0
-119 -4 0
119 81 0
-119 -81 0
119 98 0
-119 -98 0
31 126 0
-31 -126 0
31 110 0
-31 -110 0
31 54 0
-31 -54 0
68 127 0
-68 -127 0
68 12 0
-68 -12 0
68 82 0
-68 -82 0
136 97 0
-136 -97 0
136 127 0
-136 -127 0
136 6 0
-136 -6 0
48 42 0
-48 -42 0
48 23 0
-48 -23 0
48 13 0
-48 -13 0
87 53 0
-87 -53 0
87 103 0
-87 -103 0
87 118 0
-87 -118 0
75 138 0
-75 -138 0
75 132 0
-75 -132 0
2 52 0
-2 -52 0
2 46 0
-2 -46 0
50 46 0
-50 -46 0
50 88 0
-50 -88 0
50 7 0
-50 -7 0
37 81 0
-37 -81 0
37 30 0
-37 -30 0
84 57 0
-84 -57 0
84 96 0
-84 -96 0
84 134 0
-84 -134 0
38 135 0
-38 -135 0
38 15 0
-38 -15 0
61 82 0
-61 -82 0
61 36 0
-61 -36 0
61 122 0
-61 -122 0
45 44 0
-45 -44 0
45 71 0
-45 -71 0
62 60 0
-62 -60 0
62 135 0
-62 -135 0
62 96 0
-62 -96 0
89 14 0
-89 -14 0
89 92 0
-89 -92 0
90 121 0
-90 -121 0
90 57 0
-90 -57 0
108 39 0
-108 -39 0
63 103 0
-63 -103 0
50 36 0
-50 -36 0
123 42 0
-123 -42 0
85 82 0
-85 -82 0
2 114 0
-2 -114 0
41 130 0
-41 -130 0
71 6 0
-71 -6 0
61 46 0
-61 -46 0
5 39 0
-5 -39 0
3 94 0
-3 -94 0
41 62 0
-41 -62 0
116 138 0
-116 -138 0
140 130 0
-140 -130 0
109 136 0
-109 -136 0
22 4 0
-22 -4 0
3 110 0
-3 -110 0
26 44 0
-26 -44 0
8 117 0
-8 -117 0
63 41 0
-63 -41 0
69 93 0
-69 -93 0
95 88 0
-95 -88 0
16 30 0
-16 -30 0
17 121 0
-17 -121 0
83 127 0
-83 -127 0
90 54 0
-90 -54 0
4 121 0
-4 -121 0
118 122 0
-118 -122 0
93 52 0
-93 -52 0
9 125 0
-9 -125 0
45 94 0
-45 -94 0
133 28 0
-133 -28 0
16 125 0
-16 -125 0
21 60 0
-21 -60 0
33 88 0
-33 -88 0
90 47 0
-90 -47 0
61 91 0
-61 -91 0
58 2 0
-58 -2 0
129 59 0
-129 -59 0
128 123 0
-128 -123 0
66 27 0
-66 -27 0
11 123 0
-11 -123 0
120 116 0
-120 -116 0
36 106 0
-36 -106 0
99 15 0
-99 -15 0
70 81 0
-70 -81 0
9 56 0
-9 -56 0
36 102 0
-36 -102 0
117 71 0
-117 -71 0
105 42 0
-105 -42 0
50 12 0
-50 -12 0
7 97 0
-7 -97 0
86 82 0
-86 -82 0
51 1 0
-51 -1 0
106 1 0
-106 -1 0
84 52 0
-84 -52 0
66 119 0
-66 -119 0
128 75 0
-128 -75 0
140 46 0
-140 -46 0
30 43 0
-30 -43 0
64 121 0
-64 -121 0
64 53 0
-64 -53 0
111 24 0
-111 -24 0
130 64 0
-130 -64 0
128 25 0
-128 -25 0
108 30 0
-108 -30 0
85 39 0
-85 -39 0
120 24 0
-120 -24 0
133 125 0
-133 -125 0
8 111 0
-8 -111 0
5 110 0
-5 -110 0
73 54 0
-73 -54 0
101 121 0
-101 -121 0
70 123 0
-70 -123 0
95 49 0
-95 -49 0
8 32 0
-8 -32 0
58 76 0
-58 -76 0
86 14 0
-86 -14 0
93 17 0
-93 -17 0
68 65 0
-68 -65 0
112 28 0
-112 -28 0
29 137 0
-29 -137 0
24 124 0
-24 -124 0
128 60 0
-128 -60 0
86 6 0
-86 -6 0
133 71 0
-133 -71 0
58 21 0
-58 -21 0
100 50 0
-100 -50 0
72 138 0
-72 -138 0
119 90 0
-119 -90 0
74 51 0
-74 -51 0
122 124 0
-122 -124 0
10 47 0
-10 -47 0
107 133 0
-107 -133 0
139 5 0
-139 -5 0
43 27 0
-43 -27 0
70 6 0
-70 -6 0
43 1 0
-43 -1 0
113 25 0
-113 -25 0
119 71 0
-119 -71 0
26 17 0
-26 -17 0
128 49 0
-128 -49 0
32 84 0
-32 -84 0
136 62 0
-136 -62 0
115 31 0
-115 -31 0
108 50 0
-108 -50 0
12 103 0
-12 -103 0
18 99 0
-18 -99 0
117 57 0
-117 -57 0
73 107 0
-73 -107 0
116 123 0
-116 -123 0
80 52 0
-80 -52 0
31 2 0
-31 -2 0
29 83 0
-29 -83 0
36 3 0
-36 -3 0
80 39 0
-80 -39 0
5 46 0
-5 -46 0
136 18 0
-136 -18 0
15 14 0
-15 -14 0
111 75 0
-111 -75 0
95 105 0
-95 -105 0
139 102 0
-139 -102 0
63 12 0
-63 -12 0
80 103 0
-80 -103 0
10 87 0
-10 -87 0
92 71 0
-92 -71 0
8 76 0
-8 -76 0
80 102 0
-80 -102 0
95 53 0
-95 -53 0
115 84 0
-115 -84 0
58 34 0
-58 -34 0
118 7 0
-118 -7 0
94 47 0
-94 -47 0
115 50 0
-115 -50 0
131 88 0
-131 -88 0
84 94 0
-84 -94 0
33 127 0
-33 -127 0
90 1 0
-90 -1 0
25 38 0
-25 -38 0
51 71 0
-51 -71 0
139 138 0
-139 -138 0
106 126 0
-106 -126 0
25 125 0
-25 -125 0
91 49 0
-91 -49 0
59 96 0
-59 -96 0
3 54 0
-3 -54 0
136 61 0
-136 -61 0
123 64 0
-123 -64 0
5 7 0
-5 -7 0
119 6 0
-119 -6 0
83 52 0
-83 -52 0
55 67 0
-55 -67 0
84 102 0
-84 -102 0
128 98 0
-128 -98 0
19 128 0
-19 -128 0
69 21 0
-69 -21 0
50 132 0
-50 -132 0
67 137 0
-67 -137 0
18 96 0
-18 -96 0
132 64 0
-132 -64 0
73 45 0
-73 -45 0
33 39 0
-33 -39 0
89 4 0
-89 -4 0
41 49 0
-41 -49 0
26 87 0
-26 -87 0
84 53 0
-84 -53 0
2 134 0
-2 -134 0
106 76 0
-106 -76 0
22 135 0
-22 -135 0
29 106 0
-29 -106 0
27 126 0
-27 -126 0
99 3 0
-99 -3 0
8 106 0
-8 -106 0
72 95 0
-72 -95 0
133 114 0
-133 -114 0
140 69 0
-140 -69 0
119 85 0
-119 -85 0
100 125 0
-100 -125 0
41 84 0
-41 -84 0
62 91 0
-62 -91 0
19 84 0
-19 -84 0
56 75 0
-56 -75 0
56 99 0
-56 -99 0
52 46 0
-52 -46 0
11 71 0
-11 -71 0
32 138 0
-32 -138 0
78 6 0
-78 -6 0
10 19 0
-10 -19 0
66 13 0
-66 -13 0
111 139 0
-111 -139 0
58 66 0
-58 -66 0
36 51 0
-36 -51 0
19 55 0
-19 -55 0
18 12 0
-18 -12 0
38 117 0
-38 -117 0
9 26 0
-9 -26 0
56 92 0
-56 -92 0
1 138 0
-1 -138 0
83 136 0
-83 -136 0
122 97 0
-122 -97 0
69 50 0
-69 -50 0
117 4 0
-117 -4 0
72 10 0
-72 -10 0
24 21 0
-24 -21 0
129 47 0
-129 -47 0
32 113 0
-32 -113 0
136 51 0
-136 -51 0
2 60 0
-2 -60 0
56 98 0
-56 -98 0
98 127 0
-98 -127 0
36 57 0
-36 -57 0
29 65 0
-29 -65 0
2 132 0
-2 -132 0
98 123 0
-98 -123 0
48 114 0
-48 -114 0
16 43 0
-16 -43 0
66 26 0
-66 -26 0
110 132 0
-110 -132 0
10 125 0
-10 -125 0
55 134 0
-55 -134 0
16 78 0
-16 -78 0
66 62 0
-66 -62 0
102 122 0
-102 -122 0
140 18 0
-140 -18 0
86 44 0
-86 -44 0
123 6 0
-123 -6 0
59 26 0
-59 -26 0
72 115 0
-72 -115 0
9 30 0
-9 -30 0
23 51 0
-23 -51 0
34 32 0
-34 -32 0
104 52 0
-104 -52 0
59 3 0
-59 -3 0
101 107 0
-101 -107 0
133 64 0
-133 -64 0
125 99 0
-125 -99 0
10 126 0
-10 -126 0
93 65 0
-93 -65 0
1 64 0
-1 -64 0
90 94 0
-90 -94 0
131 98 0
-131 -98 0
2 105 0
-2 -105 0
68 33 0
-68 -33 0
11 39 0
-11 -39 0
9 131 0
-9 -131 0
110 126 0
-110 -126 0
24 106 0
-24 -106 0
87 51 0
-87 -51 0
34 124 0
-34 -124 0
22 90 0
-22 -90 0
84 127 0
-84 -127 0
112 55 0
-112 -55 0
104 79 0
-104 -79 0
26 65 0
-26 -65 0
73 82 0
-73 -82 0
120 56 0
-120 -56 0
33 13 0
-33 -13 0
80 60 0
-80 -60 0
35 46 0
-35 -46 0
87 124 0
-87 -124 0
69 64 0
-69 -64 0
73 16 0
-73 -16 0
29 111 0
-29 -111 0
33 94 0
-33 -94 0
79 39 0
-79 -39 0
104 124 0
-104 -124 0
117 88 0
-117 -88 0
55 23 0
-55 -23 0
15 53 0
-15 -53 0
18 54 0
-18 -54 0
101 81 0
-101 -81 0
55 62 0
-55 -62 0
78 30 0
-78 -30 0
114 96 0
-114 -96 0
94 57 0
-94 -57 0
111 61 0
-111 -61 0
66 76 0
-66 -76 0
26 110 0
-26 -110 0
95 123 0
-95 -123 0
45 92 0
-45 -92 0
49 121 0
-49 -121 0
38 132 0
-38 -132 0
79 136 0
-79 -136 0
72 38 0
-72 -38 0
48 76 0
-48 -76 0
22 52 0
-22 -52 0
83 60 0
-83 -60 0
56 14 0
-56 -14 0
92 138 0
-92 -138 0
67 46 0
-67 -46 0
28 30 0
-28 -30 0
77 118 0
-77 -118 0
29 81 0
-29 -81 0
73 50 0
-73 -50 0
136 123 0
-136 -123 0
7 127 0
-7 -127 0
35 93 0
-35 -93 0
30 105 0
-30 -105 0
63 131 0
-63 -131 0
70 94 0
-70 -94 0
19 94 0
-19 -94 0
73 84 0
-73 -84 0
9 46 0
-9 -46 0
11 97 0
-11 -97 0
132 4 0
-132 -4 0
122 15 0
-122 -15 0
31 18 0
-31 -18 0
31 76 0
-31 -76 0
30 46 0
-30 -46 0
46 14 0
-46 -14 0
101 22 0
-101 -22 0
33 46 0
-33 -46 0
45 17 0
-45 -17 0
140 113 0
-140 -113 0
27 82 0
-27 -82 0
39 81 0
-39 -81 0
22 118 0
-22 -118 0
31 134 0
-31 -134 0
33 53 0
-33 -53 0
77 47 0
-77 -47 0
80 13 0
-80 -13 0
115 76 0
-115 -76 0
58 126 0
-58 -126 0
66 3 0
-66 -3 0
50 71 0
-50 -71 0
3 64 0
-3 -64 0
69 123 0
-69 -123 0
11 12 0
-11 -12 0
101 40 0
-101 -40 0
99 102 0
-99 -102 0
85 27 0
-85 -27 0
63 11 0
-63 -11 0
50 135 0
-50 -135 0
28 83 0
-28 -83 0
136 89 0
-136 -89 0
41 57 0
-41 -57 0
45 114 0
-45 -114 0
59 13 0
-59 -13 0
108 105 0
-108 -105 0
112 51 0
-112 -51 0
101 127 0
-101 -127 0
16 139 0
-16 -139 0
101 72 0
-101 -72 0
87 42 0
-87 -42 0
111 60 0
-111 -60 0
81 60 0
-81 -60 0
37 6 0
-37 -6 0
131 117 0
-131 -117 0
109 54 0
-109 -54 0
55 71 0
-55 -71 0
71 42 0
-71 -42 0
9 93 0
-9 -93 0
78 113 0
-78 -113 0
34 89 0
-34 -89 0
29 60 0
-29 -60 0
99 92 0
-99 -92 0
16 118 0
-16 -118 0
100 118 0
-100 -118 0
131 43 0
-131 -43 0
16 108 0
-16 -108 0
93 46 0
-93 -46 0
56 31 0
-56 -31 0
78 117 0
-78 -117 0
91 118 0
-91 -118 0
115 74 0
-115 -74 0
119 130 0
-119 -130 0
62 99 0
-62 -99 0
30 60 0
-30 -60 0
112 22 0
-112 -22 0
115 36 0
-115 -36 0
91 130 0
-91 -130 0
107 81 0
-107 -81 0
29 25 0
-29 -25 0
102 57 0
-102 -57 0
133 36 0
-133 -36 0
136 12 0
-136 -12 0
56 121 0
-56 -121 0
62 39 0
-62 -39 0
25 118 0
-25 -118 0
83 64 0
-83 -64 0
69 53 0
-69 -53 0
25 85 0
-25 -85 0
67 47 0
-67 -47 0
99 44 0
-99 -44 0
45 135 0
-45 -135 0
111 18 0
-111 -18 0
89 114 0
-89 -114 0
10 69 0
-10 -69 0
114 118 0
-114 -118 0
104 95 0
-104 -95 0
125 70 0
-125 -70 0
48 49 0
-48 -49 0
83 13 0
-83 -13 0
8 140 0
-8 -140 0
17 88 0
-17 -88 0
84 105 0
-84 -105 0
111 37 0
-111 -37 0
131 83 0
-131 -83 0
45 15 0
-45 -15 0
93 110 0
-93 -110 0
80 53 0
-80 -53 0
118 138 0
-118 -138 0
120 31 0
-120 -31 0
5 55 0
-5 -55 0
10 14 0
-10 -14 0
29 17 0
-29 -17 0
104 29 0
-104 -29 0
56 46 0
-56 -46 0
56 55 0
-56 -55 0
30 54 0
-30 -54 0
55 51 0
-55 -51 0
104 66 0
-104 -66 0
129 130 0
-129 -130 0
118 71 0
-118 -71 0
22 46 0
-22 -46 0
104 106 0
-104 -106 0
72 41 0
-72 -41 0
34 108 0
-34 -108 0
104 22 0
-104 -22 0
29 24 0
-29 -24 0
35 11 0
-35 -11 0
38 7 0
-38 -7 0
36 97 0
-36 -97 0
37 65 0
-37 -65 0
65 122 0
-65 -122 0
130 76 0
-130 -76 0
35 109 0
-35 -109 0
38 99 0
-38 -99 0
91 97 0
-91 -97 0
96 124 0
-96 -124 0
56 93 0
-56 -93 0
120 19 0
-120 -19 0
83 105 0
-83 -105 0
79 125 0
-79 -125 0
119 123 0
-119 -123 0
79 123 0
-79 -123 0
62 52 0
-62 -52 0
116 57 0
-116 -57 0
111 86 0
-111 -86 0
8 102 0
-8 -102 0
24 31 0
-24 -31 0
